&BANDS
  prefix = 'CsPbBr3'
  outdir = './tmp/'
  filband = 'cspbbr3_bands.dat'
/
